db/data/16075115932157225711280561558127451240.z3.out
-------------------
2500.197852983
